
Gurobi 13.0.0 (mac64[arm]) logging started Sun Dec  7 08:30:15 2025

Set parameter LogFile to value "/Users/jjung404/PyProjects/qiga/data/steiner-opt/ES10FST/es10fst02_log.txt"
Set parameter OutputFlag to value 1
Gurobi Optimizer version 13.0.0 build v13.0.0rc1 (mac64[arm] - Darwin 24.6.0 24G325)

CPU model: Apple M3
Thread count: 8 physical cores, 8 logical processors, using up to 8 threads

Optimize a model with 50 rows, 39 columns and 118 nonzeros (Min)
Model fingerprint: 0xfda5e5e5
Model has 13 linear objective coefficients
Variable types: 26 continuous, 13 integer (13 binary)
Coefficient statistics:
  Matrix range     [1e+00, 9e+00]
  Objective range  [4e+02, 3e+06]
  Bounds range     [1e+00, 1e+00]
  RHS range        [1e+00, 9e+00]
Found heuristic solution: objective 1.913410e+07
Presolve removed 50 rows and 39 columns
Presolve time: 0.00s
Presolve: All rows and columns removed

Explored 0 nodes (0 simplex iterations) in 0.00 seconds (0.00 work units)
Thread count was 1 (of 8 available processors)

Solution count 1: 1.91341e+07 

Optimal solution found (tolerance 1.00e-04)
Best objective 1.913410400000e+07, best bound 1.913410400000e+07, gap 0.0000%
